experiments/knapsack_bounded/knapsack_bounded_5_7.mps
NAME
ROWS
 N  OBJ
 L  c1
 L  c2
 L  c3
 L  c4
 L  c5
 L  c6
COLUMNS
    MARKER    'MARKER'                 'INTORG'
    x[1]      c1        439
    x[1]      c2        1
    x[1]      OBJ       -139
    x[2]      c1        915
    x[2]      c3        1
    x[2]      OBJ       -321
    x[3]      c1        433
    x[3]      c4        1
    x[3]      OBJ       -61
    x[4]      c1        577
    x[4]      c5        1
    x[4]      OBJ       -600
    x[5]      c1        819
    x[5]      c6        1
    x[5]      OBJ       -686
    MARKER    'MARKER'                 'INTEND'
RHS
    rhs       c1        1592
    rhs       c2        5
    rhs       c3        5
    rhs       c4        5
    rhs       c5        1
    rhs       c6        3
RANGES
BOUNDS
 LO bounds    x[1]      0
 PL bounds    x[1]
 LO bounds    x[2]      0
 PL bounds    x[2]
 LO bounds    x[3]      0
 PL bounds    x[3]
 LO bounds    x[4]      0
 PL bounds    x[4]
 LO bounds    x[5]      0
 PL bounds    x[5]
ENDATA
